NAME: cum110.tsp
TYPE: TSP
COMMENT: User-generated TSP file
DIMENSION: 110
EDGE_WEIGHT_TYPE: EUC_2D
NODE_COORD_SECTION
1 72.0 73.0
2 72.0 65.0
3 108.0 42.0
4 40.0 70.0
5 30.0 101.0
6 1.0 95.0
7 50.0 74.0
8 42.0 95.0
9 18.0 33.0
10 75.0 50.0
11 106.0 33.0
12 54.0 44.0
13 95.0 27.0
14 29.0 95.0
15 86.0 12.0
16 48.0 76.0
17 19.0 39.0
18 99.0 32.0
19 46.0 30.0
20 33.0 46.0
21 89.0 87.0
22 75.0 9.0
23 17.0 23.0
24 41.0 4.0
25 70.0 64.0
26 17.0 9.0
27 70.0 48.0
28 104.0 105.0
29 74.0 96.0
30 94.0 12.0
31 100.0 70.0
32 75.0 49.0
33 49.0 50.0
34 74.0 61.0
35 22.0 48.0
36 97.0 61.0
37 76.0 64.0
38 99.0 102.0
39 37.0 22.0
40 16.0 26.0
41 47.0 91.0
42 26.0 43.0
43 16.0 68.0
44 44.0 93.0
45 23.0 2.0
46 106.0 81.0
47 83.0 73.0
48 4.0 7.0
49 28.0 59.0
50 58.0 97.0
51 104.0 43.0
52 32.0 9.0
53 105.0 22.0
54 87.0 108.0
55 40.0 56.0
56 3.0 94.0
57 45.0 1.0
58 109.0 62.0
59 53.0 71.0
60 67.0 110.0
61 14.0 30.0
62 18.0 43.0
63 84.0 17.0
64 52.0 23.0
65 16.0 95.0
66 24.0 90.0
67 55.0 89.0
68 72.0 7.0
69 105.0 77.0
70 77.0 66.0
71 83.0 64.0
72 70.0 107.0
73 56.0 89.0
74 11.0 30.0
75 30.0 105.0
76 71.0 58.0
77 23.0 4.0
78 33.0 24.0
79 34.0 105.0
80 41.0 60.0
81 14.0 18.0
82 32.0 38.0
83 19.0 7.0
84 35.0 105.0
85 107.0 75.0
86 8.0 90.0
87 3.0 89.0
88 69.0 102.0
89 13.0 57.0
90 69.0 89.0
91 23.0 1.0
92 77.0 40.0
93 108.0 21.0
94 58.0 77.0
95 67.0 7.0
96 75.0 101.0
97 78.0 65.0
98 40.0 106.0
99 47.0 13.0
100 62.0 63.0
101 90.0 54.0
102 34.0 42.0
103 86.0 110.0
104 89.0 110.0
105 89.0 91.0
106 55.0 99.0
107 43.0 28.0
108 32.0 108.0
109 47.0 94.0
110 44.0 64.0
EOF





